%chk=new.chk 
%mem=2GB 
%NProcShared=16 
# opt wb97xd Gen scrf=(cpcm,solvent=water) 
 
Title Card Require 
 
0,1 
5        0.095433     0.081209     -0.179416 
8        -1.026979     0.829420     -0.761885 
8        0.152930     0.432351     1.250687 
8        -0.307007     -1.344439     -0.224560 
8        1.319079     0.395519     -0.905838 
6        -1.283455     0.687521     -2.126002 
6        0.454937     1.752334     1.590151 
6        0.543804     -2.322000     0.291145 
6        2.572943     0.087180     -0.377273 
1        -2.195470     1.247697     -2.382366 
1        -1.441275     -0.368553     -2.408921 
1        -0.456645     1.081703     -2.742043 
1        -0.283680     2.463444     1.180517 
1        0.454231     1.852030     2.685943 
1        1.451182     2.057640     1.223218 
1        -0.006823     -3.270564     0.382199 
1        1.414344     -2.503191     -0.363891 
1        0.924736     -2.053382     1.292352 
1        3.263580     0.933059     -0.529633 
1        2.529693     -0.119725     0.705283 
1        3.016549     -0.796838     -0.868662 
11        -2.180104     -0.423853     1.053430 
 
